*SENSE:Maximize
NAME          MODEL
ROWS
 N  OBJ
 L  C0000000
 L  C0000001
 L  C0000002
 L  C0000003
 L  C0000004
 L  C0000005
 L  C0000006
 L  C0000007
 L  C0000008
 L  C0000009
 L  C0000010
 L  C0000011
 L  C0000012
 L  C0000013
 L  C0000014
 L  C0000015
COLUMNS
    X0000000  C0000000   1.000000000000e+00
    X0000000  C0000015   4.119859790953e-02
    X0000000  OBJ        4.065401760000e+02
    X0000001  C0000001   1.000000000000e+00
    X0000001  C0000002   1.000000000000e+00
    X0000001  C0000015   5.907608087340e-03
    X0000001  OBJ        5.829518851200e+01
    X0000002  C0000003   1.000000000000e+00
    X0000002  C0000004   1.000000000000e+00
    X0000002  C0000015   1.886953702484e-02
    X0000002  OBJ        1.862011158720e+02
    X0000003  C0000005   1.000000000000e+00
    X0000003  C0000006   1.000000000000e+00
    X0000003  C0000015   1.631494977700e-02
    X0000003  OBJ        1.370751625600e+02
    X0000004  C0000007   1.000000000000e+00
    X0000004  C0000015   3.739062361389e-02
    X0000004  OBJ        3.141490400000e+02
    X0000005  C0000008   1.000000000000e+00
    X0000005  C0000009   1.000000000000e+00
    X0000005  C0000015   7.932725539141e-03
    X0000005  OBJ        6.664927920000e+01
    X0000006  C0000010   1.000000000000e+00
    X0000006  C0000011   1.000000000000e+00
    X0000006  C0000015   1.249048256893e-02
    X0000006  OBJ        2.490948972960e+02
    X0000007  C0000012   1.000000000000e+00
    X0000007  C0000013   1.000000000000e+00
    X0000007  C0000015   7.039767414918e-03
    X0000007  OBJ        1.403925053760e+02
    X0000008  C0000014   1.000000000000e+00
    X0000008  C0000015   7.647434881130e-02
    X0000008  OBJ        1.525110816000e+03
    MARK      'MARKER'                 'INTORG'
    X0000009  C0000000  -1.000000000000e+00
    X0000009  C0000001  -1.000000000000e+00
    X0000009  C0000003  -1.000000000000e+00
    X0000009  C0000006   1.000000000000e+00
    X0000009  C0000011   1.000000000000e+00
    X0000009  OBJ       -4.123327608037e+01
    MARK      'MARKER'                 'INTEND'
    MARK      'MARKER'                 'INTORG'
    X0000010  C0000002   1.000000000000e+00
    X0000010  C0000005  -1.000000000000e+00
    X0000010  C0000007  -1.000000000000e+00
    X0000010  C0000008  -1.000000000000e+00
    X0000010  C0000013   1.000000000000e+00
    X0000010  OBJ       -3.742574483064e+01
    MARK      'MARKER'                 'INTEND'
    MARK      'MARKER'                 'INTORG'
    X0000011  C0000004   1.000000000000e+00
    X0000011  C0000009   1.000000000000e+00
    X0000011  C0000010  -1.000000000000e+00
    X0000011  C0000012  -1.000000000000e+00
    X0000011  C0000014  -1.000000000000e+00
    X0000011  OBJ       -7.654800705063e+01
    MARK      'MARKER'                 'INTEND'
RHS
    RHS       C0000000   0.000000000000e+00
    RHS       C0000001   0.000000000000e+00
    RHS       C0000002   1.000000000000e+00
    RHS       C0000003   0.000000000000e+00
    RHS       C0000004   1.000000000000e+00
    RHS       C0000005   0.000000000000e+00
    RHS       C0000006   1.000000000000e+00
    RHS       C0000007   0.000000000000e+00
    RHS       C0000008   0.000000000000e+00
    RHS       C0000009   1.000000000000e+00
    RHS       C0000010   0.000000000000e+00
    RHS       C0000011   1.000000000000e+00
    RHS       C0000012   0.000000000000e+00
    RHS       C0000013   1.000000000000e+00
    RHS       C0000014   0.000000000000e+00
    RHS       C0000015   1.500000000000e+01
BOUNDS
 BV BND       X0000009
 BV BND       X0000010
 BV BND       X0000011
ENDATA
